SCIP version 5.0.0 [precision: 8 byte] [memory: block] [mode: optimized] [LP solver: NONE] [GitHash: 3bbd232]
Copyright (C) 2002-2017 Konrad-Zuse-Zentrum fuer Informationstechnik Berlin (ZIB)

External codes: 
  Readline EditLine w  GNU library for command line editing (gnu.org/s/readline)
  CppAD 20160000.1     Algorithmic Differentiation of C++ algorithms developed by B. Bell (www.coin-or.org/CppAD)
  ZLIB 1.2.5           General purpose compression library by J. Gailly and M. Adler (zlib.net)
  GMP 6.1.2            GNU Multiple Precision Arithmetic Library developed by T. Granlund (gmplib.org)

user parameter file <scip.set> not found - using default parameters

read problem <../../Split_data/output/biodeg/0/3_sample_biodeg.logreg>
============

File name	:	../../Split_data/output/biodeg/0/3_sample_biodeg.logreg
Problem name 	:	3_sample_biodeg
Number of data	:	844
Number of var	:	41
The given data has linear dependence
1 sets of column vector are linearly dependent:
{ 19}, 

[dim=1] time: 0.035038
[dim=2] time: 0.065502
[dim=3] time: 0.102104
[dim=4] time: 0.131438
[dim=5] time: 0.160591
[dim=6] time: 0.18786
[dim=7] time: 0.21497
[dim=8] time: 0.242287
[dim=9] time: 0.273657
[dim=10] time: 0.311456
[dim=11] time: 0.343752
[dim=12] time: 0.377294
[dim=13] time: 0.408798
[dim=14] time: 0.433092
[dim=15] time: 0.456795
[dim=16] time: 0.474006
[dim=17] time: 0.490873
[dim=18] time: 0.507167
[dim=19] time: 0.524235
[dim=20] time: 0.540356
[dim=21] time: 0.555771
[dim=22] time: 0.58064
[dim=23] time: 0.613017
[dim=24] time: 0.626395
[dim=25] time: 0.639853
[dim=26] Time of forward = 0.652636sec.
AIC: 540.128
k: 25

[dim=40] time: 0.144226
[dim=39] time: 0.198574
[dim=38] time: 0.250556
[dim=37] time: 0.30008
[dim=36] time: 0.339924
[dim=35] time: 0.401315
[dim=34] time: 0.482955
[dim=33] time: 0.529876
[dim=32] time: 0.572329
[dim=31] time: 0.613061
[dim=30] time: 0.653119
[dim=29] time: 0.707039
[dim=28] time: 0.743221
[dim=27] time: 0.778322
[dim=26] time: 0.809358
[dim=25] time: 0.843348
[dim=24] time: 0.875043
[dim=23] Time of backward = 0.899109sec.
AIC: 538.137
k: 24
